400
120 120
1 84 823
2 84 847
3 84 144
4 83 920
5 83 776
6 83 672
7 83 945
8 83 84
9 83 19
10 83 438
11 83 540
12 83 221
13 83 1
14 82 179
15 82 629
16 82 728
17 82 760
18 82 524
19 82 892
20 82 85
21 82 199
22 82 542
23 82 630
24 81 568
25 81 737
26 81 581
27 81 145
28 81 557
29 81 944
30 81 296
31 80 230
32 80 777
33 80 641
34 80 498
35 80 824
36 80 916
37 80 798
38 80 377
39 80 403
40 80 672
41 80 33
42 79 692
43 79 127
44 79 423
45 79 143
46 79 646
47 79 791
48 79 114
49 79 882
50 78 775
51 78 687
52 78 320
53 78 996
54 78 8
55 78 142
56 78 718
57 78 770
58 78 978
59 78 324
60 78 308
61 78 250
62 77 767
63 77 828
64 77 791
65 77 709
66 77 191
67 76 357
68 76 821
69 76 439
70 76 0
71 76 571
72 76 293
73 76 448
74 75 845
75 75 150
76 75 251
77 75 863
78 75 951
79 75 270
80 75 305
81 74 471
82 74 571
83 74 826
84 74 996
85 74 601
86 74 712
87 74 799
88 74 706
89 73 63
90 73 624
91 73 66
92 73 50
93 73 54
94 72 736
95 72 883
96 72 940
97 72 565
98 72 306
99 72 657
100 72 804
101 71 807
102 71 656
103 71 634
104 71 585
105 71 493
106 71 234
107 71 264
108 70 393
109 70 846
110 70 293
111 70 904
112 70 794
113 70 281
114 70 26
115 70 660
116 70 892
117 70 789
118 70 272
119 69 736
120 69 486
121 69 687
122 69 283
123 68 470
124 68 103
125 68 632
126 68 917
127 68 643
128 68 839
129 68 396
130 68 10
131 68 878
132 68 823
133 68 361
134 67 915
135 67 182
136 67 92
137 67 868
138 66 133
139 66 823
140 66 425
141 66 598
142 66 227
143 66 706
144 66 392
145 65 626
146 65 71
147 65 390
148 65 386
149 65 300
150 64 405
151 64 187
152 64 654
153 64 224
154 64 905
155 64 552
156 64 608
157 64 306
158 64 750
159 64 523
160 63 470
161 63 273
162 63 796
163 63 279
164 63 330
165 63 70
166 63 745
167 62 729
168 62 905
169 61 415
170 61 958
171 61 616
172 61 48
173 61 126
174 61 139
175 60 726
176 60 119
177 60 988
178 59 701
179 59 287
180 59 914
181 59 45
182 59 908
183 59 801
184 59 775
185 59 236
186 59 288
187 59 943
188 59 7
189 59 555
190 58 556
191 58 936
192 58 471
193 58 625
194 57 790
195 57 591
196 57 649
197 57 680
198 57 724
199 57 264
200 56 638
201 56 86
202 56 401
203 56 568
204 56 882
205 56 918
206 56 349
207 56 804
208 55 479
209 55 791
210 55 799
211 55 853
212 55 487
213 54 914
214 54 419
215 54 458
216 54 118
217 54 551
218 54 63
219 54 966
220 54 836
221 54 81
222 53 165
223 53 908
224 53 201
225 53 722
226 52 526
227 52 608
228 52 491
229 52 581
230 52 471
231 52 904
232 51 684
233 51 795
234 51 81
235 51 235
236 51 384
237 51 865
238 50 21
239 50 779
240 50 869
241 50 464
242 50 38
243 49 324
244 49 722
245 49 123
246 49 581
247 49 298
248 49 130
249 49 553
250 49 790
251 48 458
252 48 972
253 48 424
254 48 326
255 48 134
256 48 880
257 47 452
258 47 908
259 47 20
260 47 881
261 47 873
262 47 224
263 47 443
264 47 120
265 47 549
266 47 289
267 46 424
268 46 982
269 46 793
270 46 23
271 46 816
272 46 197
273 46 21
274 46 71
275 45 277
276 45 12
277 45 78
278 45 599
279 45 62
280 45 244
281 44 447
282 44 39
283 44 578
284 43 685
285 43 795
286 43 111
287 43 196
288 43 761
289 43 977
290 43 158
291 43 858
292 43 389
293 43 427
294 42 834
295 42 688
296 42 713
297 42 314
298 42 594
299 41 570
300 41 301
301 41 688
302 41 707
303 41 325
304 41 740
305 41 624
306 41 790
307 41 132
308 40 590
309 40 522
310 40 863
311 40 51
312 39 774
313 39 864
314 39 780
315 39 429
316 39 720
317 39 237
318 39 679
319 38 826
320 38 535
321 38 760
322 38 484
323 38 883
324 38 43
325 37 382
326 37 475
327 37 233
328 37 126
329 37 8
330 36 324
331 36 329
332 36 130
333 36 275
334 36 858
335 36 610
336 35 623
337 35 789
338 35 589
339 34 409
340 34 368
341 34 413
342 34 717
343 33 161
344 33 30
345 33 38
346 33 534
347 33 896
348 33 851
349 32 508
350 32 828
351 32 632
352 32 67
353 32 706
354 32 589
355 32 905
356 32 513
357 31 361
358 31 696
359 31 590
360 31 727
361 31 693
362 31 910
363 31 835
364 31 723
365 31 766
366 30 445
367 30 933
368 30 6
369 30 430
370 30 703
371 29 996
372 29 542
373 29 562
374 29 882
375 29 399
376 29 59
377 29 35
378 29 739
379 28 948
380 28 738
381 28 489
382 28 297
383 27 616
384 27 139
385 27 639
386 27 21
387 27 253
388 26 456
389 26 177
390 26 467
391 26 112
392 25 127
393 25 249
394 25 520
395 25 630
396 24 973
397 24 443
398 24 747
399 24 327
400 24 461
